N = 448;
M = 1084;
Edge_Start = [1, 2, 3, 4, 5, 5, 6, 7, 8, 9, 10, 11, 12, 13, 14, 15, 15, 16, 17, 17, 18, 19, 19, 20, 21, 22, 23, 23, 24, 25, 25, 26, 27, 27, 28, 29, 30, 31, 31, 32, 33, 33, 34, 35, 35, 36, 37, 37, 38, 39, 39, 40, 41, 41, 42, 43, 43, 44, 45, 45, 46, 47, 47, 48, 49, 50, 51, 52, 53, 54, 55, 56, 57, 57, 58, 59, 60, 60, 61, 62, 62, 63, 64, 64, 65, 66, 66, 68, 68, 69, 70, 71, 72, 72, 73, 74, 76, 76, 77, 78, 78, 79, 80, 81, 82, 82, 83, 84, 84, 85, 86, 87, 88, 90, 91, 92, 93, 94, 95, 95, 96, 97, 97, 98, 99, 99, 100, 101, 102, 103, 103, 104, 105, 105, 106, 107, 107, 108, 109, 109, 110, 111, 113, 113, 114, 115, 115, 116, 117, 118, 119, 120, 120, 121, 122, 123, 124, 125, 126, 127, 128, 128, 129, 130, 130, 131, 132, 132, 133, 134, 134, 135, 136, 136, 137, 138, 139, 140, 140, 141, 142, 142, 143, 144, 144, 145, 146, 146, 147, 148, 148, 150, 151, 151, 152, 153, 153, 154, 155, 155, 156, 157, 157, 158, 159, 160, 163, 163, 164, 165, 165, 166, 167, 168, 169, 170, 171, 171, 172, 173, 173, 174, 175, 175, 176, 177, 179, 180, 181, 182, 182, 183, 184, 184, 185, 186, 186, 187, 188, 188, 189, 190, 191, 193, 194, 194, 195, 196, 196, 197, 198, 198, 199, 200, 200, 201, 202, 203, 204, 204, 205, 206, 206, 207, 208, 208, 210, 211, 213, 213, 214, 215, 216, 217, 218, 219, 220, 221, 222, 223, 223, 224, 225, 225, 227, 228, 229, 230, 231, 231, 232, 233, 233, 234, 235, 236, 237, 238, 239, 240, 240, 241, 242, 242, 243, 244, 245, 246, 247, 248, 250, 251, 252, 252, 253, 255, 256, 256, 257, 258, 259, 260, 260, 261, 262, 262, 263, 264, 264, 265, 266, 266, 268, 268, 271, 271, 272, 273, 273, 274, 275, 275, 276, 277, 277, 278, 279, 280, 282, 283, 283, 284, 285, 285, 286, 287, 287, 288, 290, 291, 291, 293, 293, 294, 295, 295, 297, 298, 299, 300, 300, 301, 302, 304, 304, 305, 306, 306, 307, 308, 309, 310, 310, 311, 312, 313, 314, 315, 316, 316, 317, 318, 318, 320, 320, 321, 322, 322, 324, 325, 326, 326, 327, 328, 328, 331, 332, 333, 333, 334, 335, 335, 337, 337, 338, 339, 340, 341, 341, 342, 343, 343, 344, 345, 345, 346, 347, 347, 348, 349, 351, 352, 353, 353, 354, 355, 356, 357, 358, 359, 360, 361, 362, 363, 364, 364, 365, 366, 366, 367, 368, 368, 369, 370, 370, 371, 372, 372, 373, 374, 374, 375, 376, 376, 377, 379, 380, 380, 382, 383, 384, 385, 386, 386, 387, 388, 388, 390, 391, 391, 392, 393, 394, 395, 395, 396, 397, 397, 398, 399, 399, 400, 401, 401, 402, 403, 403, 404, 405, 405, 406, 407, 407, 408, 409, 409, 410, 411, 411, 412, 413, 413, 415, 415, 416, 417, 418, 419, 420, 422, 423, 424, 425, 426, 427, 428, 429, 430, 431, 433, 434, 435, 436, 437, 438, 439, 440, 441, 443, 444, 445, 446, 30, 3, 4, 5, 6, 34, 7, 36, 9, 10, 11, 12, 13, 14, 15, 16, 44, 17, 18, 46, 19, 20, 48, 21, 22, 23, 24, 52, 25, 26, 54, 27, 28, 56, 29, 58, 31, 32, 61, 33, 34, 63, 35, 36, 65, 37, 38, 67, 39, 40, 69, 41, 42, 71, 43, 44, 73, 45, 46, 75, 47, 48, 77, 49, 50, 51, 52, 53, 54, 55, 56, 57, 58, 87, 59, 89, 61, 90, 62, 63, 92, 64, 65, 94, 66, 67, 96, 69, 98, 70, 100, 72, 73, 102, 74, 75, 77, 106, 78, 79, 108, 80, 81, 82, 83, 112, 84, 85, 114, 86, 116, 88, 118, 91, 121, 93, 123, 95, 96, 125, 97, 98, 127, 99, 100, 129, 101, 102, 103, 104, 133, 105, 106, 135, 107, 108, 137, 109, 110, 139, 111, 112, 114, 143, 115, 116, 145, 117, 147, 119, 149, 121, 150, 122, 152, 124, 125, 126, 127, 128, 129, 158, 130, 131, 160, 132, 133, 162, 134, 135, 164, 136, 137, 166, 138, 168, 140, 141, 170, 142, 143, 172, 144, 145, 174, 146, 147, 176, 148, 149, 178, 151, 152, 181, 153, 154, 183, 155, 156, 185, 157, 158, 187, 159, 160, 161, 164, 193, 165, 166, 195, 167, 197, 169, 199, 171, 172, 201, 173, 174, 203, 175, 176, 205, 177, 178, 209, 181, 182, 183, 212, 184, 185, 214, 186, 187, 216, 188, 189, 218, 190, 191, 192, 194, 195, 224, 196, 197, 226, 198, 199, 228, 200, 201, 230, 202, 232, 204, 205, 234, 206, 207, 236, 208, 209, 238, 211, 212, 214, 243, 215, 245, 217, 247, 219, 249, 221, 251, 223, 224, 253, 225, 226, 255, 257, 229, 230, 231, 232, 261, 233, 234, 263, 235, 236, 237, 267, 239, 269, 241, 270, 242, 243, 272, 244, 274, 246, 276, 248, 249, 280, 252, 253, 282, 254, 256, 257, 286, 258, 259, 260, 261, 290, 262, 263, 292, 264, 265, 294, 266, 267, 296, 269, 298, 272, 301, 273, 274, 303, 275, 276, 305, 277, 278, 307, 279, 280, 281, 283, 284, 313, 285, 286, 315, 287, 288, 317, 289, 291, 292, 321, 294, 323, 295, 296, 325, 327, 299, 329, 301, 330, 302, 303, 305, 334, 306, 307, 336, 308, 309, 310, 311, 340, 312, 342, 314, 315, 316, 317, 346, 318, 319, 348, 321, 350, 322, 323, 352, 354, 326, 327, 356, 328, 329, 358, 361, 333, 334, 363, 335, 336, 365, 338, 367, 339, 340, 341, 342, 371, 343, 344, 373, 345, 346, 375, 347, 348, 377, 349, 350, 352, 353, 354, 383, 355, 356, 357, 387, 359, 389, 390, 362, 363, 364, 365, 394, 366, 367, 396, 368, 369, 398, 370, 371, 400, 372, 373, 402, 374, 375, 404, 376, 377, 406, 378, 380, 381, 410, 412, 384, 414, 386, 387, 416, 388, 389, 418, 391, 392, 420, 393, 422, 395, 396, 424, 397, 398, 426, 399, 400, 428, 401, 402, 430, 403, 404, 432, 405, 406, 434, 407, 408, 436, 409, 410, 438, 411, 412, 440, 413, 414, 442, 416, 444, 417, 446, 419, 448, 421, 423, 424, 425, 426, 427, 428, 429, 430, 431, 432, 434, 435, 436, 437, 438, 439, 440, 441, 442, 444, 445, 446, 447];
Edge_End = [30, 3, 4, 5, 6, 34, 7, 36, 9, 10, 11, 12, 13, 14, 15, 16, 44, 17, 18, 46, 19, 20, 48, 21, 22, 23, 24, 52, 25, 26, 54, 27, 28, 56, 29, 58, 31, 32, 61, 33, 34, 63, 35, 36, 65, 37, 38, 67, 39, 40, 69, 41, 42, 71, 43, 44, 73, 45, 46, 75, 47, 48, 77, 49, 50, 51, 52, 53, 54, 55, 56, 57, 58, 87, 59, 89, 61, 90, 62, 63, 92, 64, 65, 94, 66, 67, 96, 69, 98, 70, 100, 72, 73, 102, 74, 75, 77, 106, 78, 79, 108, 80, 81, 82, 83, 112, 84, 85, 114, 86, 116, 88, 118, 91, 121, 93, 123, 95, 96, 125, 97, 98, 127, 99, 100, 129, 101, 102, 103, 104, 133, 105, 106, 135, 107, 108, 137, 109, 110, 139, 111, 112, 114, 143, 115, 116, 145, 117, 147, 119, 149, 121, 150, 122, 152, 124, 125, 126, 127, 128, 129, 158, 130, 131, 160, 132, 133, 162, 134, 135, 164, 136, 137, 166, 138, 168, 140, 141, 170, 142, 143, 172, 144, 145, 174, 146, 147, 176, 148, 149, 178, 151, 152, 181, 153, 154, 183, 155, 156, 185, 157, 158, 187, 159, 160, 161, 164, 193, 165, 166, 195, 167, 197, 169, 199, 171, 172, 201, 173, 174, 203, 175, 176, 205, 177, 178, 209, 181, 182, 183, 212, 184, 185, 214, 186, 187, 216, 188, 189, 218, 190, 191, 192, 194, 195, 224, 196, 197, 226, 198, 199, 228, 200, 201, 230, 202, 232, 204, 205, 234, 206, 207, 236, 208, 209, 238, 211, 212, 214, 243, 215, 245, 217, 247, 219, 249, 221, 251, 223, 224, 253, 225, 226, 255, 257, 229, 230, 231, 232, 261, 233, 234, 263, 235, 236, 237, 267, 239, 269, 241, 270, 242, 243, 272, 244, 274, 246, 276, 248, 249, 280, 252, 253, 282, 254, 256, 257, 286, 258, 259, 260, 261, 290, 262, 263, 292, 264, 265, 294, 266, 267, 296, 269, 298, 272, 301, 273, 274, 303, 275, 276, 305, 277, 278, 307, 279, 280, 281, 283, 284, 313, 285, 286, 315, 287, 288, 317, 289, 291, 292, 321, 294, 323, 295, 296, 325, 327, 299, 329, 301, 330, 302, 303, 305, 334, 306, 307, 336, 308, 309, 310, 311, 340, 312, 342, 314, 315, 316, 317, 346, 318, 319, 348, 321, 350, 322, 323, 352, 354, 326, 327, 356, 328, 329, 358, 361, 333, 334, 363, 335, 336, 365, 338, 367, 339, 340, 341, 342, 371, 343, 344, 373, 345, 346, 375, 347, 348, 377, 349, 350, 352, 353, 354, 383, 355, 356, 357, 387, 359, 389, 390, 362, 363, 364, 365, 394, 366, 367, 396, 368, 369, 398, 370, 371, 400, 372, 373, 402, 374, 375, 404, 376, 377, 406, 378, 380, 381, 410, 412, 384, 414, 386, 387, 416, 388, 389, 418, 391, 392, 420, 393, 422, 395, 396, 424, 397, 398, 426, 399, 400, 428, 401, 402, 430, 403, 404, 432, 405, 406, 434, 407, 408, 436, 409, 410, 438, 411, 412, 440, 413, 414, 442, 416, 444, 417, 446, 419, 448, 421, 423, 424, 425, 426, 427, 428, 429, 430, 431, 432, 434, 435, 436, 437, 438, 439, 440, 441, 442, 444, 445, 446, 447, 1, 2, 3, 4, 5, 5, 6, 7, 8, 9, 10, 11, 12, 13, 14, 15, 15, 16, 17, 17, 18, 19, 19, 20, 21, 22, 23, 23, 24, 25, 25, 26, 27, 27, 28, 29, 30, 31, 31, 32, 33, 33, 34, 35, 35, 36, 37, 37, 38, 39, 39, 40, 41, 41, 42, 43, 43, 44, 45, 45, 46, 47, 47, 48, 49, 50, 51, 52, 53, 54, 55, 56, 57, 57, 58, 59, 60, 60, 61, 62, 62, 63, 64, 64, 65, 66, 66, 68, 68, 69, 70, 71, 72, 72, 73, 74, 76, 76, 77, 78, 78, 79, 80, 81, 82, 82, 83, 84, 84, 85, 86, 87, 88, 90, 91, 92, 93, 94, 95, 95, 96, 97, 97, 98, 99, 99, 100, 101, 102, 103, 103, 104, 105, 105, 106, 107, 107, 108, 109, 109, 110, 111, 113, 113, 114, 115, 115, 116, 117, 118, 119, 120, 120, 121, 122, 123, 124, 125, 126, 127, 128, 128, 129, 130, 130, 131, 132, 132, 133, 134, 134, 135, 136, 136, 137, 138, 139, 140, 140, 141, 142, 142, 143, 144, 144, 145, 146, 146, 147, 148, 148, 150, 151, 151, 152, 153, 153, 154, 155, 155, 156, 157, 157, 158, 159, 160, 163, 163, 164, 165, 165, 166, 167, 168, 169, 170, 171, 171, 172, 173, 173, 174, 175, 175, 176, 177, 179, 180, 181, 182, 182, 183, 184, 184, 185, 186, 186, 187, 188, 188, 189, 190, 191, 193, 194, 194, 195, 196, 196, 197, 198, 198, 199, 200, 200, 201, 202, 203, 204, 204, 205, 206, 206, 207, 208, 208, 210, 211, 213, 213, 214, 215, 216, 217, 218, 219, 220, 221, 222, 223, 223, 224, 225, 225, 227, 228, 229, 230, 231, 231, 232, 233, 233, 234, 235, 236, 237, 238, 239, 240, 240, 241, 242, 242, 243, 244, 245, 246, 247, 248, 250, 251, 252, 252, 253, 255, 256, 256, 257, 258, 259, 260, 260, 261, 262, 262, 263, 264, 264, 265, 266, 266, 268, 268, 271, 271, 272, 273, 273, 274, 275, 275, 276, 277, 277, 278, 279, 280, 282, 283, 283, 284, 285, 285, 286, 287, 287, 288, 290, 291, 291, 293, 293, 294, 295, 295, 297, 298, 299, 300, 300, 301, 302, 304, 304, 305, 306, 306, 307, 308, 309, 310, 310, 311, 312, 313, 314, 315, 316, 316, 317, 318, 318, 320, 320, 321, 322, 322, 324, 325, 326, 326, 327, 328, 328, 331, 332, 333, 333, 334, 335, 335, 337, 337, 338, 339, 340, 341, 341, 342, 343, 343, 344, 345, 345, 346, 347, 347, 348, 349, 351, 352, 353, 353, 354, 355, 356, 357, 358, 359, 360, 361, 362, 363, 364, 364, 365, 366, 366, 367, 368, 368, 369, 370, 370, 371, 372, 372, 373, 374, 374, 375, 376, 376, 377, 379, 380, 380, 382, 383, 384, 385, 386, 386, 387, 388, 388, 390, 391, 391, 392, 393, 394, 395, 395, 396, 397, 397, 398, 399, 399, 400, 401, 401, 402, 403, 403, 404, 405, 405, 406, 407, 407, 408, 409, 409, 410, 411, 411, 412, 413, 413, 415, 415, 416, 417, 418, 419, 420, 422, 423, 424, 425, 426, 427, 428, 429, 430, 431, 433, 434, 435, 436, 437, 438, 439, 440, 441, 443, 444, 445, 446];
L = [8, 18, 18, 16, 15, 19, 11, 12, 7, 4, 1, 10, 2, 13, 8, 8, 7, 10, 11, 3, 10, 16, 6, 13, 11, 15, 10, 5, 19, 12, 2, 2, 11, 13, 7, 7, 1, 10, 15, 18, 16, 11, 2, 12, 1, 5, 12, 2, 9, 6, 13, 19, 6, 18, 7, 2, 17, 7, 18, 15, 4, 9, 2, 3, 16, 7, 18, 5, 16, 1, 7, 8, 13, 2, 4, 11, 14, 15, 17, 8, 13, 16, 1, 16, 9, 1, 3, 18, 17, 11, 17, 13, 11, 8, 2, 10, 19, 4, 9, 4, 15, 6, 14, 7, 4, 12, 7, 3, 3, 4, 7, 2, 14, 17, 8, 19, 17, 4, 15, 5, 5, 9, 10, 4, 7, 12, 15, 16, 15, 18, 14, 5, 17, 18, 13, 2, 10, 14, 11, 14, 12, 18, 3, 16, 15, 6, 7, 15, 15, 8, 6, 4, 7, 18, 9, 1, 14, 6, 3, 9, 12, 15, 2, 18, 7, 4, 11, 18, 14, 2, 19, 18, 7, 15, 1, 2, 15, 6, 4, 8, 10, 10, 8, 2, 7, 5, 1, 5, 3, 9, 18, 10, 12, 9, 6, 9, 13, 15, 17, 7, 17, 1, 3, 5, 11, 19, 19, 19, 1, 14, 11, 4, 18, 3, 7, 5, 17, 2, 14, 13, 5, 8, 4, 18, 8, 7, 11, 2, 8, 8, 4, 13, 15, 4, 18, 2, 17, 1, 10, 16, 14, 17, 7, 1, 5, 10, 11, 19, 5, 16, 3, 11, 13, 14, 6, 18, 12, 16, 15, 12, 12, 16, 9, 13, 15, 1, 14, 16, 18, 1, 3, 19, 4, 6, 8, 12, 7, 7, 2, 3, 7, 16, 2, 14, 14, 8, 14, 6, 11, 16, 6, 12, 5, 10, 8, 18, 11, 15, 12, 6, 17, 1, 18, 19, 10, 12, 6, 15, 3, 11, 6, 13, 15, 9, 13, 12, 18, 12, 2, 12, 1, 3, 2, 3, 6, 9, 1, 16, 7, 2, 4, 12, 18, 16, 10, 1, 11, 3, 7, 11, 17, 10, 18, 14, 15, 16, 13, 19, 7, 17, 10, 6, 19, 4, 16, 12, 16, 5, 17, 6, 2, 8, 19, 13, 1, 16, 6, 7, 4, 6, 10, 17, 3, 1, 16, 2, 4, 15, 12, 17, 4, 9, 12, 8, 2, 5, 2, 13, 2, 3, 1, 3, 13, 13, 19, 9, 15, 1, 17, 15, 6, 18, 9, 13, 5, 14, 1, 13, 1, 6, 1, 9, 3, 5, 7, 2, 14, 11, 11, 7, 3, 9, 9, 18, 2, 13, 7, 12, 4, 7, 12, 10, 9, 11, 15, 5, 16, 1, 1, 18, 3, 10, 2, 5, 6, 15, 4, 9, 11, 1, 2, 7, 12, 1, 7, 10, 12, 16, 19, 15, 2, 16, 3, 1, 12, 15, 17, 1, 18, 9, 11, 11, 15, 5, 9, 12, 12, 12, 5, 10, 2, 3, 1, 9, 7, 10, 14, 3, 12, 1, 16, 19, 3, 15, 1, 2, 17, 17, 7, 9, 6, 4, 18, 16, 3, 17, 14, 2, 8, 15, 9, 17, 12, 6, 1, 4, 5, 3, 15, 10, 1, 4, 9, 13, 14, 15, 5, 1, 9, 9, 13, 17, 14, 8, 7, 2, 8, 14, 15, 11, 16, 11, 8, 18, 18, 16, 15, 19, 11, 12, 7, 4, 1, 10, 2, 13, 8, 8, 7, 10, 11, 3, 10, 16, 6, 13, 11, 15, 10, 5, 19, 12, 2, 2, 11, 13, 7, 7, 1, 10, 15, 18, 16, 11, 2, 12, 1, 5, 12, 2, 9, 6, 13, 19, 6, 18, 7, 2, 17, 7, 18, 15, 4, 9, 2, 3, 16, 7, 18, 5, 16, 1, 7, 8, 13, 2, 4, 11, 14, 15, 17, 8, 13, 16, 1, 16, 9, 1, 3, 18, 17, 11, 17, 13, 11, 8, 2, 10, 19, 4, 9, 4, 15, 6, 14, 7, 4, 12, 7, 3, 3, 4, 7, 2, 14, 17, 8, 19, 17, 4, 15, 5, 5, 9, 10, 4, 7, 12, 15, 16, 15, 18, 14, 5, 17, 18, 13, 2, 10, 14, 11, 14, 12, 18, 3, 16, 15, 6, 7, 15, 15, 8, 6, 4, 7, 18, 9, 1, 14, 6, 3, 9, 12, 15, 2, 18, 7, 4, 11, 18, 14, 2, 19, 18, 7, 15, 1, 2, 15, 6, 4, 8, 10, 10, 8, 2, 7, 5, 1, 5, 3, 9, 18, 10, 12, 9, 6, 9, 13, 15, 17, 7, 17, 1, 3, 5, 11, 19, 19, 19, 1, 14, 11, 4, 18, 3, 7, 5, 17, 2, 14, 13, 5, 8, 4, 18, 8, 7, 11, 2, 8, 8, 4, 13, 15, 4, 18, 2, 17, 1, 10, 16, 14, 17, 7, 1, 5, 10, 11, 19, 5, 16, 3, 11, 13, 14, 6, 18, 12, 16, 15, 12, 12, 16, 9, 13, 15, 1, 14, 16, 18, 1, 3, 19, 4, 6, 8, 12, 7, 7, 2, 3, 7, 16, 2, 14, 14, 8, 14, 6, 11, 16, 6, 12, 5, 10, 8, 18, 11, 15, 12, 6, 17, 1, 18, 19, 10, 12, 6, 15, 3, 11, 6, 13, 15, 9, 13, 12, 18, 12, 2, 12, 1, 3, 2, 3, 6, 9, 1, 16, 7, 2, 4, 12, 18, 16, 10, 1, 11, 3, 7, 11, 17, 10, 18, 14, 15, 16, 13, 19, 7, 17, 10, 6, 19, 4, 16, 12, 16, 5, 17, 6, 2, 8, 19, 13, 1, 16, 6, 7, 4, 6, 10, 17, 3, 1, 16, 2, 4, 15, 12, 17, 4, 9, 12, 8, 2, 5, 2, 13, 2, 3, 1, 3, 13, 13, 19, 9, 15, 1, 17, 15, 6, 18, 9, 13, 5, 14, 1, 13, 1, 6, 1, 9, 3, 5, 7, 2, 14, 11, 11, 7, 3, 9, 9, 18, 2, 13, 7, 12, 4, 7, 12, 10, 9, 11, 15, 5, 16, 1, 1, 18, 3, 10, 2, 5, 6, 15, 4, 9, 11, 1, 2, 7, 12, 1, 7, 10, 12, 16, 19, 15, 2, 16, 3, 1, 12, 15, 17, 1, 18, 9, 11, 11, 15, 5, 9, 12, 12, 12, 5, 10, 2, 3, 1, 9, 7, 10, 14, 3, 12, 1, 16, 19, 3, 15, 1, 2, 17, 17, 7, 9, 6, 4, 18, 16, 3, 17, 14, 2, 8, 15, 9, 17, 12, 6, 1, 4, 5, 3, 15, 10, 1, 4, 9, 13, 14, 15, 5, 1, 9, 9, 13, 17, 14, 8, 7, 2, 8, 14, 15, 11, 16, 11];
T = [9, 15, 8, 11, 13, 16, 13, 5, 1, 1, 1, 17, 1, 8, 1, 11, 13, 9, 6, 1, 7, 10, 10, 14, 1, 7, 6, 10, 18, 17, 7, 5, 16, 2, 2, 4, 4, 22, 16, 22, 9, 13, 3, 12, 8, 3, 6, 1, 9, 4, 12, 15, 2, 18, 2, 4, 18, 14, 19, 12, 2, 13, 10, 2, 27, 1, 19, 1, 18, 1, 12, 1, 12, 3, 4, 13, 12, 12, 12, 10, 17, 13, 1, 13, 11, 1, 7, 8, 19, 17, 18, 22, 9, 2, 4, 13, 14, 8, 7, 1, 10, 1, 7, 4, 4, 13, 8, 5, 9, 1, 1, 14, 19, 23, 7, 16, 18, 6, 16, 5, 10, 13, 3, 3, 12, 10, 8, 10, 16, 24, 8, 5, 15, 28, 8, 1, 7, 6, 18, 12, 9, 18, 1, 16, 16, 3, 17, 17, 7, 1, 17, 5, 1, 11, 5, 1, 15, 1, 1, 1, 13, 22, 1, 19, 8, 1, 11, 32, 23, 1, 17, 14, 9, 14, 1, 2, 12, 10, 1, 5, 11, 13, 9, 1, 6, 14, 9, 11, 12, 12, 17, 1, 8, 14, 9, 11, 9, 21, 22, 3, 20, 2, 5, 2, 3, 9, 16, 19, 1, 11, 5, 2, 12, 1, 19, 1, 14, 1, 16, 12, 6, 17, 1, 16, 8, 12, 4, 2, 12, 9, 1, 12, 14, 12, 15, 7, 10, 7, 12, 28, 21, 12, 2, 1, 7, 4, 15, 23, 2, 16, 1, 9, 19, 11, 11, 23, 9, 30, 18, 11, 18, 16, 10, 10, 16, 6, 20, 8, 17, 1, 1, 15, 1, 8, 4, 8, 4, 14, 3, 1, 3, 17, 3, 10, 19, 10, 30, 7, 6, 19, 2, 15, 8, 1, 8, 17, 10, 16, 24, 4, 16, 2, 18, 19, 10, 22, 1, 18, 1, 14, 18, 15, 15, 4, 17, 18, 23, 1, 5, 1, 1, 3, 1, 4, 2, 8, 1, 15, 2, 1, 1, 14, 21, 15, 11, 1, 2, 9, 17, 11, 16, 14, 11, 8, 17, 22, 18, 12, 10, 11, 6, 2, 9, 1, 18, 19, 13, 6, 14, 7, 4, 8, 19, 18, 1, 23, 1, 6, 1, 2, 19, 13, 6, 6, 10, 1, 1, 8, 4, 15, 1, 1, 6, 10, 3, 6, 1, 19, 5, 3, 8, 1, 7, 18, 21, 5, 6, 2, 15, 17, 9, 22, 5, 10, 2, 14, 1, 6, 1, 12, 4, 13, 2, 1, 4, 1, 6, 14, 13, 6, 8, 7, 2, 22, 1, 7, 1, 16, 1, 3, 5, 13, 15, 13, 14, 1, 11, 1, 1, 19, 12, 17, 10, 3, 8, 12, 7, 10, 17, 3, 4, 6, 15, 1, 1, 9, 13, 16, 18, 13, 1, 14, 1, 1, 8, 24, 15, 1, 25, 7, 10, 5, 15, 3, 14, 16, 8, 7, 5, 14, 8, 2, 1, 11, 10, 8, 12, 2, 12, 1, 20, 9, 1, 17, 6, 3, 15, 16, 6, 14, 2, 4, 22, 17, 1, 16, 12, 5, 1, 22, 10, 18, 12, 1, 7, 1, 13, 8, 21, 13, 1, 1, 12, 14, 13, 12, 10, 1, 20, 4, 14, 15, 7, 8, 1, 1, 13, 10, 18, 16, 18, 10, 9, 15, 8, 11, 13, 16, 13, 5, 1, 1, 1, 17, 1, 8, 1, 11, 13, 9, 6, 1, 7, 10, 10, 14, 1, 7, 6, 10, 18, 17, 7, 5, 16, 2, 2, 4, 4, 22, 16, 22, 9, 13, 3, 12, 8, 3, 6, 1, 9, 4, 12, 15, 2, 18, 2, 4, 18, 14, 19, 12, 2, 13, 10, 2, 27, 1, 19, 1, 18, 1, 12, 1, 12, 3, 4, 13, 12, 12, 12, 10, 17, 13, 1, 13, 11, 1, 7, 8, 19, 17, 18, 22, 9, 2, 4, 13, 14, 8, 7, 1, 10, 1, 7, 4, 4, 13, 8, 5, 9, 1, 1, 14, 19, 23, 7, 16, 18, 6, 16, 5, 10, 13, 3, 3, 12, 10, 8, 10, 16, 24, 8, 5, 15, 28, 8, 1, 7, 6, 18, 12, 9, 18, 1, 16, 16, 3, 17, 17, 7, 1, 17, 5, 1, 11, 5, 1, 15, 1, 1, 1, 13, 22, 1, 19, 8, 1, 11, 32, 23, 1, 17, 14, 9, 14, 1, 2, 12, 10, 1, 5, 11, 13, 9, 1, 6, 14, 9, 11, 12, 12, 17, 1, 8, 14, 9, 11, 9, 21, 22, 3, 20, 2, 5, 2, 3, 9, 16, 19, 1, 11, 5, 2, 12, 1, 19, 1, 14, 1, 16, 12, 6, 17, 1, 16, 8, 12, 4, 2, 12, 9, 1, 12, 14, 12, 15, 7, 10, 7, 12, 28, 21, 12, 2, 1, 7, 4, 15, 23, 2, 16, 1, 9, 19, 11, 11, 23, 9, 30, 18, 11, 18, 16, 10, 10, 16, 6, 20, 8, 17, 1, 1, 15, 1, 8, 4, 8, 4, 14, 3, 1, 3, 17, 3, 10, 19, 10, 30, 7, 6, 19, 2, 15, 8, 1, 8, 17, 10, 16, 24, 4, 16, 2, 18, 19, 10, 22, 1, 18, 1, 14, 18, 15, 15, 4, 17, 18, 23, 1, 5, 1, 1, 3, 1, 4, 2, 8, 1, 15, 2, 1, 1, 14, 21, 15, 11, 1, 2, 9, 17, 11, 16, 14, 11, 8, 17, 22, 18, 12, 10, 11, 6, 2, 9, 1, 18, 19, 13, 6, 14, 7, 4, 8, 19, 18, 1, 23, 1, 6, 1, 2, 19, 13, 6, 6, 10, 1, 1, 8, 4, 15, 1, 1, 6, 10, 3, 6, 1, 19, 5, 3, 8, 1, 7, 18, 21, 5, 6, 2, 15, 17, 9, 22, 5, 10, 2, 14, 1, 6, 1, 12, 4, 13, 2, 1, 4, 1, 6, 14, 13, 6, 8, 7, 2, 22, 1, 7, 1, 16, 1, 3, 5, 13, 15, 13, 14, 1, 11, 1, 1, 19, 12, 17, 10, 3, 8, 12, 7, 10, 17, 3, 4, 6, 15, 1, 1, 9, 13, 16, 18, 13, 1, 14, 1, 1, 8, 24, 15, 1, 25, 7, 10, 5, 15, 3, 14, 16, 8, 7, 5, 14, 8, 2, 1, 11, 10, 8, 12, 2, 12, 1, 20, 9, 1, 17, 6, 3, 15, 16, 6, 14, 2, 4, 22, 17, 1, 16, 12, 5, 1, 22, 10, 18, 12, 1, 7, 1, 13, 8, 21, 13, 1, 1, 12, 14, 13, 12, 10, 1, 20, 4, 14, 15, 7, 8, 1, 1, 13, 10, 18, 16, 18, 10];
Lower_Bound = [0, 116, 101, 93, 82, 95, 86, 163, 162, 161, 160, 143, 142, 134, 133, 144, 153, 159, 166, 176, 190, 191, 198, 204, 222, 239, 242, 258, 257, 9, 13, 35, 57, 66, 69, 81, 78, 84, 93, 97, 112, 114, 116, 120, 134, 153, 155, 168, 170, 197, 198, 208, 209, 227, 228, 240, 241, 253, 257, 41, 29, 41, 51, 64, 65, 76, 77, 113, 105, 122, 130, 141, 134, 138, 146, 179, 165, 172, 173, 174, 181, 185, 189, 197, 202, 203, 244, 258, 270, 53, 76, 58, 74, 77, 83, 83, 93, 106, 109, 121, 129, 139, 144, 168, 173, 187, 183, 182, 188, 206, 215, 198, 207, 206, 207, 204, 221, 270, 269, 88, 83, 94, 92, 93, 88, 89, 90, 91, 104, 105, 124, 125, 136, 159, 160, 174, 183, 184, 200, 212, 222, 227, 223, 225, 224, 237, 228, 240, 252, 89, 90, 98, 107, 118, 139, 135, 115, 113, 115, 113, 122, 157, 192, 176, 177, 188, 190, 186, 187, 213, 214, 228, 243, 231, 248, 248, 256, 257, 328, 106, 104, 116, 116, 128, 142, 127, 120, 127, 139, 160, 172, 174, 190, 189, 182, 197, 202, 207, 206, 225, 215, 238, 249, 275, 264, 282, 298, 308, 324, 145, 125, 117, 157, 140, 141, 137, 138, 155, 159, 245, 241, 197, 194, 193, 202, 199, 272, 216, 226, 236, 243, 247, 249, 264, 265, 273, 285, 314, 330, 182, 178, 176, 158, 168, 156, 157, 146, 147, 161, 252, 227, 212, 197, 214, 212, 230, 253, 258, 259, 260, 262, 259, 257, 258, 273, 274, 275, 364, 354, 198, 206, 195, 197, 190, 191, 175, 186, 194, 216, 234, 246, 216, 226, 237, 239, 231, 249, 268, 274, 261, 274, 267, 268, 260, 278, 279, 328, 349, 343, 209, 207, 220, 214, 211, 205, 204, 203, 207, 222, 223, 224, 234, 232, 238, 239, 258, 262, 270, 271, 294, 278, 283, 287, 328, 301, 318, 327, 332, 342, 228, 269, 228, 227, 221, 216, 212, 236, 234, 230, 229, 235, 237, 243, 251, 253, 261, 268, 269, 270, 273, 290, 285, 298, 313, 327, 328, 339, 334, 335, 302, 255, 238, 228, 231, 229, 236, 237, 240, 244, 249, 248, 257, 250, 267, 254, 268, 269, 277, 318, 294, 309, 335, 311, 318, 360, 355, 340, 354, 354, 290, 283, 278, 270, 243, 244, 253, 258, 246, 251, 250, 259, 260, 266, 268, 275, 269, 271, 275, 292, 293, 305, 310, 332, 328, 370, 358, 365, 362, 375, 297, 318, 268, 255, 254, 255, 260, 274, 271, 283, 276, 277, 281, 293, 289, 303, 293, 300, 308, 307, 306, 319, 329, 389, 371, 384, 366, 376, 383];
Upper_Bound = [0, 116, 101, 93, 82, 95, 86, 163, 162, 161, 160, 143, 142, 134, 133, 144, 153, 159, 166, 176, 190, 191, 198, 204, 222, 239, 242, 258, 257, 9, 13, 35, 57, 66, 69, 81, 78, 84, 93, 97, 112, 114, 116, 120, 134, 153, 155, 168, 170, 197, 198, 208, 209, 227, 228, 240, 241, 253, 257, 41, 29, 41, 51, 64, 65, 76, 77, 113, 105, 122, 130, 141, 134, 138, 146, 179, 165, 172, 173, 174, 181, 185, 189, 197, 202, 203, 244, 258, 270, 53, 76, 58, 74, 77, 83, 83, 93, 106, 109, 121, 129, 139, 144, 168, 173, 187, 183, 182, 188, 206, 215, 198, 207, 206, 207, 204, 221, 270, 269, 88, 83, 94, 92, 93, 88, 89, 90, 91, 104, 105, 124, 125, 136, 159, 160, 174, 183, 184, 200, 212, 222, 227, 223, 225, 224, 237, 228, 240, 252, 89, 90, 98, 107, 118, 139, 135, 115, 113, 115, 113, 122, 157, 192, 176, 177, 188, 190, 186, 187, 213, 214, 228, 243, 231, 248, 248, 256, 257, 328, 106, 104, 116, 116, 128, 142, 127, 120, 127, 139, 160, 172, 174, 190, 189, 182, 197, 202, 207, 206, 225, 215, 238, 249, 275, 264, 282, 298, 308, 324, 145, 125, 117, 157, 140, 141, 137, 138, 155, 159, 245, 241, 197, 194, 193, 202, 199, 272, 216, 226, 236, 243, 247, 249, 264, 265, 273, 285, 314, 330, 182, 178, 176, 158, 168, 156, 157, 146, 147, 161, 252, 227, 212, 197, 214, 212, 230, 253, 258, 259, 260, 262, 259, 257, 258, 273, 274, 275, 364, 354, 198, 206, 195, 197, 190, 191, 175, 186, 194, 216, 234, 246, 216, 226, 237, 239, 231, 249, 268, 274, 261, 274, 267, 268, 260, 278, 279, 328, 349, 343, 209, 207, 220, 214, 211, 205, 204, 203, 207, 222, 223, 224, 234, 232, 238, 239, 258, 262, 270, 271, 294, 278, 283, 287, 328, 301, 318, 327, 332, 342, 228, 269, 228, 227, 221, 216, 212, 236, 234, 230, 229, 235, 237, 243, 251, 253, 261, 268, 269, 270, 273, 290, 285, 298, 313, 327, 328, 339, 334, 335, 302, 255, 238, 228, 231, 229, 236, 237, 240, 244, 249, 248, 257, 250, 267, 254, 268, 269, 277, 318, 294, 309, 335, 311, 318, 360, 355, 340, 354, 354, 290, 283, 278, 270, 243, 244, 253, 258, 246, 251, 250, 259, 260, 266, 268, 275, 269, 271, 275, 292, 293, 305, 310, 332, 328, 370, 358, 365, 362, 375, 297, 318, 268, 255, 254, 255, 260, 274, 271, 283, 276, 277, 281, 293, 289, 303, 293, 300, 308, 307, 306, 319, 329, 389, 371, 384, 366, 376, 383];
Start = 1;
End = 448;
Time = 383;
